c A SAT instance generated from a 3-CNF formula that had 30 clauses and 10 variables
p cnf 10 30
-9 4 -2 0
-9 -6 7 0
4 1 -8 0
1 -6 4 0
-1 -7 -9 0
-9 10 1 0
-10 2 4 0
8 4 -2 0
-10 6 -3 0
6 5 -1 0
-8 -7 3 0
-3 10 -7 0
-6 2 1 0
-3 9 -10 0
10 1 -6 0
8 4 5 0
-5 -9 7 0
-5 -3 -10 0
-6 -3 4 0
3 7 8 0
-10 8 2 0
-8 -7 4 0
-9 8 6 0
-3 -2 9 0
8 -1 6 0
-3 2 6 0
-5 -7 6 0
1 -5 -6 0
1 -5 3 0
-10 5 -1 0
%
0

80 26 80 91 80 49 3 58 67 95
